Linux optc-04-08 4.15.0-88-generic #88-Ubuntu SMP Tue Feb 11 20:11:34 UTC 2020 x86_64 x86_64 x86_64 GNU/Linux

top - 07:39:03 up 2 days, 18:14,  0 users,  load average: 0,71, 0,93, 0,98
Tasks: 474 gesamt,   1 laufend, 241 schlafend,   0 gestoppt,   0 Zombie
%CPU(s): 17,9 be,  4,4 sy,  0,0 ni, 77,7 un,  0,0 wa,  0,0 hi,  0,0 si,  0,0 st
KiB Spch : 65916192 gesamt, 63223864 frei,   622080 belegt,  2070248 Puff/Cache
KiB Swap:  8388604 gesamt,  8252944 frei,   135660 belegt. 64722236 verfü Spch 

  PID USER      PR  NI    VIRT    RES    SHR S  %CPU %MEM     ZEIT+ BEFEHL
35312 bzfhende  20   0   52808   4324   3376 R  11,8  0,0   0:00.03 top
 1093 mongodb   20   0 1018944  23516  13136 S   5,9  0,0  11:41.80 mongod
    1 root      20   0  233656   6180   4336 S   0,0  0,0   0:17.03 systemd
    2 root      20   0       0      0      0 S   0,0  0,0   0:00.28 kthreadd
    4 root       0 -20       0      0      0 I   0,0  0,0   0:00.00 kworker/0:+
    5 root      20   0       0      0      0 I   0,0  0,0   0:43.49 kworker/u9+
    7 root       0 -20       0      0      0 I   0,0  0,0   0:00.00 mm_percpu_+
    8 root      20   0       0      0      0 S   0,0  0,0   0:00.13 ksoftirqd/0

hard time limit: 00-04:10:00
hard mem limit: 38600

SLURM jobID: 6405126

@01 /nfs/OPTI/bzfhende/instances//./miplib2010_opm2/instances/opm2-z12-s12.mps.gz ===========
-----------------------------
So 8. Mär 07:39:03 CET 2020
-----------------------------
@03 1583649543
@05 7200
SCIP version 7.0.0 [precision: 8 byte] [memory: block] [mode: optimized] [LP solver: CPLEX 12.10.0.0] [GitHash: 297532de76]
Copyright (C) 2002-2020 Konrad-Zuse-Zentrum fuer Informationstechnik Berlin (ZIB)

External codes: 
  Readline 7.0         GNU library for command line editing (gnu.org/s/readline)
  CPLEX 12.10.0.0      Linear Programming Solver developed by IBM (www.cplex.com)
  CppAD 20180000.0     Algorithmic Differentiation of C++ algorithms developed by B. Bell (www.coin-or.org/CppAD)
  ZLIB 1.2.11          General purpose compression library by J. Gailly and M. Adler (zlib.net)
  GMP 6.1.2            GNU Multiple Precision Arithmetic Library developed by T. Granlund (gmplib.org)
  bliss 0.73p          Computing Graph Automorphism Groups by T. Junttila and P. Kaski (http://www.tcs.hut.fi/Software/bliss/)

user parameter file <scip.set> not found - using default parameters

SCIP> 
SCIP> set load /nfs/OPTI/bzfhende/scip-opti/check/../settings/periodic_report.sett
loaded parameter file </nfs/OPTI/bzfhende/scip-opti/check/../settings/periodic_report.set>
SCIP> set limits time 7200
limits/time = 7200
SCIP> set limits nodes 2100000000
limits/nodes = 2100000000
SCIP> set limits memory 35000
limits/memory = 35000
SCIP> set lp advanced threads 1
lp/threads = 1
SCIP> set timing clocktype 1
timing/clocktype = 1
SCIP> set display freq 10000
display/freq = 10000
SCIP> set memory savefac 1.0
memory/savefac = 1
SCIP> set save /nfs/OPTI/bzfhende/scip-opti/check/treesize.prediction.opm2/bzfhennde.instancegroups_opm2.107_opm2-z12-s12.scip.M620v2.periodic_report.set
saved parameter file </nfs/OPTI/bzfhende/scip-opti/check/treesize.prediction.opm2/bzfhende.instancegroups_opm2.107_opm2-z12-s12.scip.M620v2.periodic_report.set>
SCIP> read /nfs/OPTI/bzfhende/instances//./miplib2010_opm2/instances/opm2-z12-s122.mps.gz

read problem </nfs/OPTI/bzfhende/instances//./miplib2010_opm2/instances/opm2-z12-s12.mps.gz>
============

original problem has 10800 variables (10800 bin, 0 int, 0 impl, 0 cont) and 319508 constraints
SCIP> display parameters

number of parameters = 2603
non-default parameter settings:
display/freq = 10000
limits/time = 7200
limits/nodes = 2100000000
limits/memory = 35000
lp/threads = 1
memory/savefac = 1
timing/clocktype = 1
estimation/restarts/restartpolicy = n
estimation/restarts/restartlimit = 0
estimation/reportfreq = 100
estimation/treeprofile/enabled = TRUE

SCIP> optimize

feasible solution found by trivial heuristic after 0.4 seconds, objective value 0.000000e+00
presolving:
(round 1, fast)       410 del vars, 19466 del conss, 0 add conss, 0 chg bounds, 0 chg sides, 0 chg coeffs, 0 upgd conss, 0 impls, 299982 clqs
(round 2, fast)       420 del vars, 20100 del conss, 0 add conss, 0 chg bounds, 0 chg sides, 0 chg coeffs, 0 upgd conss, 0 impls, 299360 clqs
(round 3, exhaustive) 420 del vars, 20140 del conss, 0 add conss, 0 chg bounds, 0 chg sides, 0 chg coeffs, 299368 upgd conss, 0 impls, 299360 clqs
(round 4, fast)       440 del vars, 20614 del conss, 0 add conss, 0 chg bounds, 0 chg sides, 0 chg coeffs, 299368 upgd conss, 0 impls, 298380 clqs
(round 5, fast)       440 del vars, 21120 del conss, 0 add conss, 0 chg bounds, 0 chg sides, 0 chg coeffs, 299368 upgd conss, 0 impls, 298380 clqs
   (54.9s) probing: 1000/10358 (9.7%) - 0 fixings, 0 aggregations, 344497 implications, 0 bound changes
   (54.9s) probing: 1001/10358 (9.7%) - 0 fixings, 0 aggregations, 344860 implications, 0 bound changes
   (54.9s) probing aborted: 1000/1000 successive useless probings
   (60.4s) symmetry computation started: requiring (bin +, int +, cont +), (fixed: bin -, int -, cont -)
   (60.8s) no symmetry present
presolving (6 rounds: 6 fast, 2 medium, 2 exhaustive):
 442 deleted vars, 21218 deleted constraints, 0 added constraints, 0 tightened bounds, 0 added holes, 0 changed sides, 0 changed coefficients
 0 implications, 643142 cliques
presolved problem has 10358 variables (10358 bin, 0 int, 0 impl, 0 cont) and 298290 constraints
      8 constraints of type <knapsack>
 298282 constraints of type <setppc>
transformed objective value is always integral (scale: 1)
Presolving Time: 60.56
transformed 1/1 original solutions to the transformed problem space

 time | node  | left  |LP iter|LP it/n|mem/heur|mdpt |vars |cons |rows |cuts |sepa|confs|strbr|  dualbound   | primalbound  |  gap   | compl. 
p63.4s|     1 |     0 |     0 |     - | vbounds|   0 |  10k| 298k| 298k|   0 |  0 |  35 |   0 |-9.677450e+05 |-3.776300e+04 |2462.68%| unknown
  145s|     1 |     0 | 56801 |     - |  2440M |   0 |  10k| 298k| 298k|   0 |  0 |  54 |   0 |-9.536598e+04 |-3.776300e+04 | 152.54%| unknown
d2240s|     1 |     0 |154772 |     - |farkasdi|   0 |  10k| 298k| 298k|   0 |  2 |  54 |   0 |-9.536598e+04 |-5.408100e+04 |  76.34%| unknown
 3249s|     1 |     0 |203781 |     - |  2560M |   0 |  10k| 298k| 298k|   0 |  2 |  75 |   0 |-9.536598e+04 |-5.408100e+04 |  76.34%| unknown
 3781s|     1 |     2 |203781 |     - |  2564M |   0 |  10k| 298k| 298k|   0 |  4 |  75 |  31 |-9.429295e+04 |-5.408100e+04 |  74.36%| unknown

SCIP Status        : solving was interrupted [time limit reached]
Solving Time (sec) : 7200.01
Solving Nodes      : 49
Primal Bound       : -5.40810000000000e+04 (6 solutions)
Dual Bound         : -8.93991642826424e+04
Gap                : 65.31 %

SCIP> display statistics

SCIP Status        : solving was interrupted [time limit reached]
Total Time         :    7200.70
  solving          :    7200.01
  presolving       :      60.56 (included in solving)
  reading          :       0.69
  copying          :       0.74 (2 #copies) (minimal 0.35, maximal 0.39, average 0.37)
Original Problem   :
  Problem name     : opm2-z12-s12
  Variables        : 10800 (10800 binary, 0 integer, 0 implicit integer, 0 continuous)
  Constraints      : 319508 initial, 319508 maximal
  Objective        : minimize, 10736 non-zeros (abs.min = 1, abs.max = 574)
Presolved Problem  :
  Problem name     : t_opm2-z12-s12
  Variables        : 10358 (10358 binary, 0 integer, 0 implicit integer, 0 continuous)
  Constraints      : 298290 initial, 298344 maximal
  Objective        : minimize, 10297 non-zeros (abs.min = 1, abs.max = 574)
  Nonzeros         : 679413 constraint, 1286286 clique table
Presolvers         :   ExecTime  SetupTime  Calls  FixedVars   AggrVars   ChgTypes  ChgBounds   AddHoles    DelCons    AddCons   ChgSides   ChgCoefs
  boundshift       :       0.00       0.00      0          0          0          0          0          0          0          0          0          0
  convertinttobin  :       0.00       0.00      0          0          0          0          0          0          0          0          0          0
  domcol           :       0.16       0.00      1          0          0          0          0          0          0          0          0          0
  dualagg          :       0.00       0.00      0          0          0          0          0          0          0          0          0          0
  dualcomp         :       0.00       0.00      0          0          0          0          0          0          0          0          0          0
  dualinfer        :       0.00       0.00      0          0          0          0          0          0          0          0          0          0
  dualsparsify     :       5.52       0.00      1          0          0          0          0          0          0          0          0          0
  gateextraction   :       0.00       0.00      0          0          0          0          0          0          0          0          0          0
  implics          :       0.00       0.00      2          0          0          0          0          0          0          0          0          0
  inttobinary      :       0.00       0.00      0          0          0          0          0          0          0          0          0          0
  qpkktref         :       0.00       0.00      0          0          0          0          0          0          0          0          0          0
  redvub           :       0.00       0.00      0          0          0          0          0          0          0          0          0          0
  sparsify         :       0.21       0.00      1          0          0          0          0          0          0          0          0          0
  stuffing         :       0.00       0.00      0          0          0          0          0          0          0          0          0          0
  trivial          :       0.00       0.00      6          0          0          0          0          0          0          0          0          0
  tworowbnd        :       0.20       0.00      1          0          0          0          0          0          0          0          0          0
  dualfix          :       0.00       0.00      6        407          0          0          0          0          0          0          0          0
  genvbounds       :       0.00       0.00      0          0          0          0          0          0          0          0          0          0
  probing          :      48.51       0.00      1          0          0          0          0          0          0          0          0          0
  pseudoobj        :       0.00       0.00      3          0          0          0          0          0          0          0          0          0
  symmetry         :       0.39       0.00      1          0          0          0          0          0          0          0          0          0
  vbounds          :       0.04       0.00      1          0          0          0          0          0          0          0          0          0
  knapsack         :       1.75       0.00      5          0          0          0          0          0          0          0          0          0
  setppc           :       0.94       0.02      5         22          0          0          0          0       1078          0          0          0
  linear           :       2.56       0.09      4          0         13          0          0          0      20140          0          0          0
  logicor          :       0.00       0.00      0          0          0          0          0          0          0          0          0          0
  benders          :       0.00       0.00      0          0          0          0          0          0          0          0          0          0
  components       :       0.07       0.00      1          0          0          0          0          0          0          0          0          0
  root node        :          -          -      -          0          -          -          0          -          -          -          -          -
Constraints        :     Number  MaxNumber  #Separate #Propagate    #EnfoLP    #EnfoRelax  #EnfoPS    #Check   #ResProp    Cutoffs    DomReds       Cuts    Applied      Conss   Children
  benderslp        :          0          0          0          0         45          0          0         15          0          0          0          0          0          0          0
  integral         :          0          0          0          0         45          0          0         15          0          0          1          0          0          1         88
  knapsack         :          8          8          2      31494          0          0          0         10          8          9          0          0          0          0          0
  setppc           :     298282+    298283          2      32011          0          0          0          6      28381          9       6916          0          0          0          0
  logicor          :          0+        54          2        240          0          0          0          0          0          1          0          0          0          0          0
  benders          :          0          0          0          0          0          0          0          8          0          0          0          0          0          0          0
  countsols        :          0          0          0          0          0          0          0          8          0          0          0          0          0          0          0
  components       :          0          0          0          0          0          0          0          0          0          0          0          0          0          0          0
Constraint Timings :  TotalTime  SetupTime   Separate  Propagate     EnfoLP     EnfoPS     EnfoRelax   Check    ResProp    SB-Prop
  benderslp        :       0.00       0.00       0.00       0.00       0.00       0.00       0.00       0.00       0.00       0.00
  integral         :    2446.01       0.00       0.00       0.00    2446.01       0.00       0.00       0.00       0.00       0.00
  knapsack         :      27.51       0.00      24.51       2.88       0.00       0.00       0.00       0.02       0.00       0.10
  setppc           :      13.58       0.02       0.14      12.47       0.00       0.00       0.00       0.07       0.01       0.87
  logicor          :       0.00       0.00       0.00       0.00       0.00       0.00       0.00       0.00       0.00       0.00
  benders          :       0.00       0.00       0.00       0.00       0.00       0.00       0.00       0.00       0.00       0.00
  countsols        :       0.00       0.00       0.00       0.00       0.00       0.00       0.00       0.00       0.00       0.00
  components       :       0.02       0.00       0.00       0.02       0.00       0.00       0.00       0.00       0.00       0.00
Propagators        : #Propagate   #ResProp    Cutoffs    DomReds
  dualfix          :          3          0          0          0
  genvbounds       :          0          0          0          0
  nlobbt           :          0          0          0          0
  obbt             :          0          0          0          0
  probing          :          0          0          0          0
  pseudoobj        :        377          0          0          0
  redcost          :         72          0          0         47
  rootredcost      :          1          0          0          0
  symmetry         :          0          0          0          0
  vbounds          :      24269          0          0          0
Propagator Timings :  TotalTime  SetupTime   Presolve  Propagate    ResProp    SB-Prop
  dualfix          :       0.00       0.00       0.00       0.00       0.00       0.00
  genvbounds       :       0.01       0.00       0.00       0.01       0.00       0.00
  nlobbt           :       0.00       0.00       0.00       0.00       0.00       0.00
  obbt             :       0.00       0.00       0.00       0.00       0.00       0.00
  probing          :      48.51       0.00      48.51       0.00       0.00       0.00
  pseudoobj        :       0.18       0.00       0.00       0.18       0.00       0.00
  redcost          :       0.01       0.00       0.00       0.01       0.00       0.00
  rootredcost      :       0.02       0.00       0.00       0.02       0.00       0.00
  symmetry         :       0.44       0.00       0.39       0.04       0.00       0.01
  vbounds          :       0.07       0.00       0.04       0.01       0.00       0.02
Conflict Analysis  :       Time      Calls    Success    DomReds  Conflicts   Literals    Reconvs ReconvLits   Dualrays   Nonzeros   LP Iters   (pool size: [10000,10000])
  propagation      :       0.25         16         16          -       2312     1264.7          0        0.0          -          -          -
  infeasible LP    :       0.00          0          0          -          0        0.0          0        0.0          0        0.0          0
  bound exceed. LP :       1.08          3          2          -        308     1384.4          0        0.0          0        0.0         60
  strong branching :       0.00          0          0          -          0        0.0          0        0.0          -          -          0
  pseudo solution  :       0.00          0          0          -          0        0.0          0        0.0          -          -          -
  applied globally :       0.01          -          -          0         76      764.4          -          -          0          -          -
  applied locally  :          -          -          -          0          0        0.0          -          -          0          -          -
Separators         :   ExecTime  SetupTime      Calls    Cutoffs    DomReds       Cuts    Applied      Conss
  cut pool         :       0.00                     0          -          -          0          -          -    (maximal pool size: 0)
  aggregation      :      48.79       0.00          4          0          0          0          0          0
  cgmip            :       0.00       0.00          0          0          0          0          0          0
  clique           :      12.12       0.00          2          0          0          0          0          0
  closecuts        :       0.00       0.00          0          0          0          0          0          0
  cmir             :       0.00       0.00          0          0          0          0          0          0
  convexproj       :       0.00       0.00          0          0          0          0          0          0
  disjunctive      :       0.00       0.00          0          0          0          0          0          0
  eccuts           :       0.00       0.00          0          0          0          0          0          0
  flowcover        :       0.00       0.00          0          0          0          0          0          0
  gauge            :       0.00       0.00          0          0          0          0          0          0
  gomory           :     335.03       0.00          4          0          0          0          0          0
  impliedbounds    :       0.06       0.00          4          0          0          0          0          0
  intobj           :       0.00       0.00          0          0          0          0          0          0
  mcf              :       0.16       0.00          1          0          0          0          0          0
  oddcycle         :       0.00       0.00          0          0          0          0          0          0
  rapidlearning    :       0.03       0.00          0          0          0          0          0          0
  strongcg         :      84.67       0.00          2          0          0          0          0          0
  zerohalf         :      54.56       0.00          4          0          0          0          0          0
Pricers            :   ExecTime  SetupTime      Calls       Vars
  problem variables:       0.00          -          0          0
Branching Rules    :   ExecTime  SetupTime   BranchLP  BranchExt   BranchPS    Cutoffs    DomReds       Cuts      Conss   Children
  allfullstrong    :       0.00       0.00          0          0          0          0          0          0          0          0
  cloud            :       0.00       0.00          0          0          0          0          0          0          0          0
  distribution     :       0.00       0.00          0          0          0          0          0          0          0          0
  fullstrong       :       0.00       0.00          0          0          0          0          0          0          0          0
  inference        :       0.00       0.00          0          0          0          0          0          0          0          0
  leastinf         :       0.00       0.00          0          0          0          0          0          0          0          0
  lookahead        :       0.00       0.00          0          0          0          0          0          0          0          0
  mostinf          :       0.00       0.00          0          0          0          0          0          0          0          0
  multaggr         :       0.00       0.00          0          0          0          0          0          0          0          0
  nodereopt        :       0.00       0.00          0          0          0          0          0          0          0          0
  pscost           :       0.00       0.00          0          0          0          0          0          0          0          0
  random           :       0.00       0.00          0          0          0          0          0          0          0          0
  relpscost        :    2446.01       0.00         45          0          0          0          1          0          1         88
  vanillafullstrong:       0.00       0.00          0          0          0          0          0          0          0          0
Primal Heuristics  :   ExecTime  SetupTime      Calls      Found       Best
  LP solutions     :       0.00          -          -          0          0
  relax solutions  :       0.00          -          -          0          0
  pseudo solutions :       0.00          -          -          0          0
  strong branching :       0.00          -          -          0          0
  actconsdiving    :       0.00       0.00          0          0          0
  adaptivediving   :       0.00       0.00          0          0          0
  alns             :       3.34       0.00          2          0          0
  bound            :       0.00       0.00          0          0          0
  clique           :       0.43       0.00          1          0          0
  coefdiving       :       0.00       0.00          0          0          0
  completesol      :       0.00       0.00          0          0          0
  conflictdiving   :     391.77       0.00          1          0          0
  crossover        :       0.00       0.00          0          0          0
  dins             :       0.00       0.00          0          0          0
  distributiondivin:       0.00       0.00          0          0          0
  dualval          :       0.00       0.00          0          0          0
  farkasdiving     :    1944.58       0.00          1          1          1
  feaspump         :     615.30       0.00          1          1          0
  fixandinfer      :       0.00       0.00          0          0          0
  fracdiving       :       0.00       0.00          0          0          0
  gins             :       0.00       0.00          0          0          0
  guideddiving     :       0.00       0.00          0          0          0
  indicator        :       0.00       0.00          0          0          0
  intdiving        :       0.00       0.00          0          0          0
  intshifting      :       0.00       0.00          0          0          0
  linesearchdiving :       0.00       0.00          0          0          0
  localbranching   :       0.00       0.00          0          0          0
  locks            :       0.82       0.00          1          0          0
  lpface           :       0.00       0.00          0          0          0
  mpec             :       0.00       0.00          0          0          0
  multistart       :       0.00       0.00          0          0          0
  mutation         :       0.00       0.00          0          0          0
  nlpdiving        :       0.00       0.00          0          0          0
  objpscostdiving  :       0.00       0.00          0          0          0
  octane           :       0.00       0.00          0          0          0
  ofins            :       0.00       0.00          0          0          0
  oneopt           :       0.06       0.00          2          0          0
  padm             :       0.00       0.00          0          0          0
  proximity        :       0.00       0.00          0          0          0
  pscostdiving     :       0.00       0.00          0          0          0
  randrounding     :       0.62       0.00          4          2          0
  rens             :       0.00       0.00          0          0          0
  reoptsols        :       0.00       0.00          0          0          0
  repair           :       0.00       0.00          0          0          0
  rins             :       0.00       0.00          0          0          0
  rootsoldiving    :       0.00       0.00          0          0          0
  rounding         :      32.24       0.00         46          0          0
  shiftandpropagate:       0.00       0.00          0          0          0
  shifting         :       5.57       0.00          6          0          0
  simplerounding   :       0.00       0.00         54          0          0
  subnlp           :       0.00       0.00          0          0          0
  trivial          :       0.03       0.00          2          1          1
  trivialnegation  :       0.00       0.00          0          0          0
  trustregion      :       0.00       0.00          0          0          0
  trysol           :       0.00       0.00          0          0          0
  twoopt           :       0.00       0.00          0          0          0
  undercover       :       0.00       0.00          0          0          0
  vbounds          :       2.70       0.00          1          1          1
  veclendiving     :       0.00       0.00          0          0          0
  zeroobj          :       0.00       0.00          0          0          0
  zirounding       :       1.43       0.00         44          0          0
  other solutions  :          -          -          -          0          -
Diving (single)    :      Calls      Nodes   LP Iters Backtracks  Conflicts   MinDepth   MaxDepth   AvgDepth  RoundSols  NLeafSols  MinSolDpt  MaxSolDpt  AvgSolDpt
  actconsdiving    :          0          -          -          -          -          -          -          -          -          -          -          -          -
  coefdiving       :          0          -          -          -          -          -          -          -          -          -          -          -          -
  conflictdiving   :          1        303      18328          2        309        302        302      302.0          0          -          -          -          -
  distributiondivin:          0          -          -          -          -          -          -          -          -          -          -          -          -
  farkasdiving     :          1        698      97971          0          0        699        699      699.0          0          1        699        699      699.0
  fracdiving       :          0          -          -          -          -          -          -          -          -          -          -          -          -
  guideddiving     :          0          -          -          -          -          -          -          -          -          -          -          -          -
  linesearchdiving :          0          -          -          -          -          -          -          -          -          -          -          -          -
  pscostdiving     :          0          -          -          -          -          -          -          -          -          -          -          -          -
  veclendiving     :          0          -          -          -          -          -          -          -          -          -          -          -          -
Diving (adaptive)  :      Calls      Nodes   LP Iters Backtracks  Conflicts   MinDepth   MaxDepth   AvgDepth  RoundSols  NLeafSols  MinSolDpt  MaxSolDpt  AvgSolDpt
  actconsdiving    :          0          -          -          -          -          -          -          -          -          -          -          -          -
  coefdiving       :          0          -          -          -          -          -          -          -          -          -          -          -          -
  conflictdiving   :          0          -          -          -          -          -          -          -          -          -          -          -          -
  distributiondivin:          0          -          -          -          -          -          -          -          -          -          -          -          -
  farkasdiving     :          0          -          -          -          -          -          -          -          -          -          -          -          -
  fracdiving       :          0          -          -          -          -          -          -          -          -          -          -          -          -
  guideddiving     :          0          -          -          -          -          -          -          -          -          -          -          -          -
  linesearchdiving :          0          -          -          -          -          -          -          -          -          -          -          -          -
  pscostdiving     :          0          -          -          -          -          -          -          -          -          -          -          -          -
  veclendiving     :          0          -          -          -          -          -          -          -          -          -          -          -          -
Neighborhoods      :      Calls  SetupTime  SolveTime SolveNodes       Sols       Best       Exp3  EpsGreedy        UCB TgtFixRate  Opt  Inf Node Stal  Sol  Usr Othr Actv
  rens             :          1       0.60       1.60          1          0          0    0.00000   -1.00000    1.00000      0.700    0    1    0    0    0    0    0    1
  rins             :          0       0.00       0.00          0          0          0    0.00000   -1.00000    1.00000      0.900    0    0    0    0    0    0    0    1
  mutation         :          1       0.54       0.44          0          0          0    0.00000   -1.00000    1.00000      0.700    0    1    0    0    0    0    0    1
  localbranching   :          0       0.00       0.00          0          0          0    0.00000   -1.00000    1.00000      0.900    0    0    0    0    0    0    0    1
  crossover        :          0       0.00       0.00          0          0          0    0.00000   -1.00000    1.00000      0.900    0    0    0    0    0    0    0    1
  proximity        :          0       0.00       0.00          0          0          0    0.00000   -1.00000    1.00000      0.900    0    0    0    0    0    0    0    1
  zeroobjective    :          0       0.00       0.00          0          0          0    0.00000   -1.00000    1.00000      0.900    0    0    0    0    0    0    0    1
  dins             :          0       0.00       0.00          0          0          0    0.00000   -1.00000    1.00000      0.900    0    0    0    0    0    0    0    1
  trustregion      :          0       0.00       0.00          0          0          0    0.00000   -1.00000    1.00000      0.900    0    0    0    0    0    0    0    0
LP                 :       Time      Calls Iterations  Iter/call   Iter/sec  Time-0-It Calls-0-It    ItLimit
  primal LP        :       0.00          0          0       0.00          -       0.00          0
  dual LP          :    1132.73         58      95507    1949.12      84.32       8.56          9
  lex dual LP      :       0.00          0          0       0.00          -
  barrier LP       :       0.00          0          0       0.00          -       0.00          0
  resolve instable :       0.00          0          0       0.00          -
  diving/probing LP:    2939.55        705     146980     208.48      50.00
  strong branching :    2441.01        190     182304     959.49      74.68          -          -        355
    (at root node) :          -         31      30615     987.58          -
  conflict analysis:       0.85          6         60      10.00      70.59
B&B Tree           :
  number of runs   :          1
  nodes            :         49 (44 internal, 5 leaves)
  feasible leaves  :          0
  infeas. leaves   :          0
  objective leaves :          4
  nodes (total)    :         49 (44 internal, 5 leaves)
  nodes left       :         41
  max depth        :         43
  max depth (total):         43
  backtracks       :          1 (2.0%)
  early backtracks :          0 (0.0%)
  nodes exc. ref.  :          0 (0.0%)
  delayed cutoffs  :          0
  repropagations   :          1 (0 domain reductions, 0 cutoffs)
  avg switch length:       1.22
  switching time   :       0.03
Estim. Tree Size   :     211668
Estimation Tree    : 89 nodes (48 visited, 44 inner, 4 leaves, 41 open), weight: 0.0000 completed 0.0394
Estimations        :      estim      value      trend resolution     smooth
  wbe              :     418123          -          -          -          -
  tree-profile     :         -1          -          -          -          -
  gap              :          9    0.60494    0.36193          1          8
  tree-weight      :     211668    0.00002    0.00001          1     201172
  leaf-frequency   :         12    0.07292    0.16510          1         11
  ssg              :         30    0.93785   -0.08327          1         28
  open-nodes       :         96   41.00000   12.26947          1         85
Root Node          :
  First LP value   : -9.53659834575433e+04
  First LP Iters   :      56801 (707.27 Iter/sec)
  First LP Time    :      80.31
  Final Dual Bound : -9.42929478982279e+04
  Final Root Iters :      56801
  Root LP Estimate : -4.30616444017221e+04
Solution           :
  Solutions found  :          6 (3 improvements)
  First Solution   : +0.00000000000000e+00   (in run 1, after 0 nodes, 0.34 seconds, depth 0, found by <trivial>)
  Gap First Sol.   :   infinite
  Gap Last Sol.    :      76.34 %
  Primal Bound     : -5.40810000000000e+04   (in run 1, after 1 nodes, 2240.22 seconds, depth 699, found by <farkasdiving>)
  Dual Bound       : -8.93991642826424e+04
  Gap              :      65.31 %
Integrals          :      Total       Avg%
  primal-dual      :  345505.58      47.99
  primal-ref       :          -          - (not evaluated)
  dual-ref         :          -          - (not evaluated)

SCIP> checksol

check best solution
solution is feasible in original problem
Violation          :    absolute    relative
  bounds           : 0.00000e+00 0.00000e+00
  integrality      : 0.00000e+00           -
  LP rows          : 0.00000e+00 0.00000e+00
  constraints      : 0.00000e+00 0.00000e+00

SCIP> write sol /local/tmp/bzfhende-tmpdir/bzfhende.instancegroups_opm2.107_opm2--z12-s12.scip.M620v2.periodic_report.sol

written solution information to file </local/tmp/bzfhende-tmpdir/bzfhende.instancegroups_opm2.107_opm2-z12-s12.scip.M620v2.periodic_report.sol>

SCIP> quit

Read MPS: 1
MIP has 10800 vars and 319508 constraints
Read SOL: 1
Objective value computed by solver: -54081

Integrality tolerance: 1/10000
Linear tolerance: 1/10000
Objective tolerance: 1/10000

Check SOL: Integrality 1 Constraints 1 Objective 1
Maximum violations: Integrality 0 Constraints 0 Objective 0
@04 1583656756
-----------------------------
So 8. Mär 09:39:16 CET 2020
-----------------------------

=ready=
